39 6
14 0 13 39 32 34 20 5 9 8 0 4 3 17 11 28 33 0 7 2 24 18 37 12 27 0 16 15 26 36 38 30 29 10 6 0 25 31 21 19 35 23 22 

971

Route #1: 14 
Route #2: 13 39 32 34 20 5 9 8 
Route #3: 4 3 17 11 28 33 
Route #4: 7 2 24 18 37 12 27 
Route #5: 16 15 26 36 38 30 29 10 6 
Route #6: 25 31 21 19 35 23 22 